c colouring generated by benchmark framework
p edge 47 236
v 1 0
v 2 4
v 3 0
v 4 5
v 5 3
v 6 0
v 7 1
v 8 0
v 9 1
v 10 3
v 11 2
v 12 0
v 13 3
v 14 0
v 15 4
v 16 4
v 17 0
v 18 4
v 19 0
v 20 4
v 21 4
v 22 2
v 23 5
v 24 0
v 25 2
v 26 5
v 27 2
v 28 2
v 29 0
v 30 1
v 31 5
v 32 1
v 33 1
v 34 2
v 35 0
v 36 4
v 37 2
v 38 2
v 39 4
v 40 0
v 41 1
v 42 0
v 43 4
v 44 1
v 45 2
v 46 1
v 47 3
